3 
4 
5  12 32 50 
6  05 18 33 48 
7  03 18 33 48 
8  03 18 33 48 
9  04 18 33 48 
10  03 18 32 47 
11  02 17 32 47 
12  02 17 32 47 
13  02 17 32 47 
14  02 17 32 47 
15  02 17 32 47 
16  02 17 32 47 
17  02 17 32 47 
18  02 17 33 48 
19  03 18 33 48 
20  03 18 33 48 
21  06 21 33 48 
22  03 18 37 52 
23  08 
0 
